NAME: ./prFile/tspFile/tsp_file93.tsp
COMMENT: TSP file generated by Python
TYPE: TSP
DIMENSION: 40
EDGE_WEIGHT_TYPE: EUC_2D
NODE_COORD_SECTION
1 69 65
2 25 13
3 95 14
4 47 75
5 4 61
6 98 7
7 54 5
8 32 96
9 92 48
10 72 5
11 2 79
12 58 76
13 23 14
14 94 9
15 51 73
16 79 25
17 26 60
18 33 35
19 41 98
20 21 7
21 81 42
22 30 11
23 25 44
24 61 51
25 75 4
26 30 70
27 4 94
28 90 97
29 59 13
30 43 13
31 85 43
32 6 31
33 77 46
34 6 65
35 72 75
36 11 30
37 43 52
38 2 59
39 8 81
40 76 93
EOF
